number_of_breeds = 219;

breed_name = [
  /* Herding */
/* 1 */  "Australian Cattle Dog",
/* 2 */  "Australian Shepherd",
/* 3 */  "Bearded Collie",
/* 4 */  "Beauceron",
/* 5 */  "Belgian Laekenois",
/* 6 */  "Belgian Malinois",
/* 7 */  "Belgian Sheepdog",
/* 8 */  "Belgian Tervuren",
/* 9 */  "Bergamasco",
/* 10 */  "Berger Picard",
/* 11 */  "Border Collie",
/* 12 */  "Bouvier des Flandres",
/* 13 */  "Briard",
/* 14 */  "Canaan Dog",
/* 15 */  "Cardigan Welsh Corgi",
/* 16 */  "Collie (Rough)",
/* 17 */  "Collie (Smooth)",
/* 18 */  "Entlebucher Mountain Dog",
/* 19 */  "Finnish Lapphund",
/* 20 */  "German Shepherd Dog",
/* 21 */  "Icelandic Sheepdog",
/* 22 */  "Miniature American Shepherd",
/* 23 */  "Norwegian Buhund",
/* 24 */  "Old English Sheepdog",
/* 25 */  "Pembroke Welsh Corgi",
/* 26 */  "Polish Lowland Sheepdog",
/* 27 */  "Puli",
/* 28 */  "Pumi",
/* 29 */  "Pyrenean Shepherd",
/* 30 */  "Shetland Sheepdog",
/* 31 */  "Spanish Water Dog",
/* 32 */  "Swedish Vallhund",

  /* Hound */
/* 33 */  "Afghan Hound",
/* 34 */  "American English Coonhound",
/* 35 */  "American Foxhound",
/* 36 */  "Azawakh",
/* 37 */  "Basenji",
/* 38 */  "Basset Hound",
/* 39 */  "Beagle (13-inch)",
/* 40 */  "Beagle (15-inch)",
/* 41 */  "Black and Tan Coonhound",
/* 42 */  "Bloodhound",
/* 43 */  "Bluetick Coonhound",
/* 44 */  "Borzoi",
/* 45 */  "Cirneco Dell’Etna",
/* 46 */  "Dachshund (Long-Haired)",
/* 47 */  "Dachshund (Smooth)",
/* 48 */  "Dachshund (Wire-Haired)",
/* 49 */  "English Foxhound",
/* 50 */  "Grand Basset Griffon Vendeen",
/* 51 */  "Greyhound",
/* 52 */  "Harrier",
/* 53 */  "Ibizan Hound",
/* 54 */  "Irish Wolfhound",
/* 55 */  "Norwegian Elkhound",
/* 56 */  "Otterhound",
/* 57 */  "Petit Basset Griffon Vendeen",
/* 58 */  "Pharaoh Hound",
/* 59 */  "Plott Hound",
/* 60 */  "Portuguese Podengo Pequeno",
/* 61 */  "Redbone Coonhound",
/* 62 */  "Rhodesian Ridgeback",
/* 63 */  "Saluki",
/* 64 */  "Scottish Deerhound",
/* 65 */  "Sloughi",
/* 66 */  "Treeing Walker Coonhound",
/* 67 */  "Whippet",

  /* Toy */
  "Affenpinscher",
  "Biewer Terrier",
  "Brussels Griffon",
  "Cavalier King Charles Spaniel",
  "Chihuahua (Long-Haired)",
  "Chihuahua (Smooth)",
  "Chinese Crested",
  "English Toy Spaniel (B&PC)",
  "English Toy Spaniel (R&KC)",
  "Havanese",
  "Italian Greyhound",
  "Japanese Chin",
  "Maltese",
  "Manchester Terrier (Toy)",
  "Miniature Pinscher",
  "Papillon",
  "Pekingese",
  "Pomeranian",
  "Poodle (Toy)",
  "Pug",
  "Shih Tzu",
  "Silky Terrier",
  "Toy Fox Terrier",
  "Yorkshire Terrier",

  /* Non-Sporting */
  "American Eskimo Dog",
  "Bichon Frise",
  "Boston Terrier",
  "Bulldog",
  "Chinese Shar-Pei",
  "Chow Chow",
  "Coton De Tulear",
  "Dalmatian",
  "Finnish Spitz",
  "French Bulldog",
  "Keeshond",
  "Lhasa Apso",
  "Lowchen",
  "Norwegian Lundhund",
  "Poodle (Miniature)",
  "Poodle (Standard)",
  "Schipperke",
  "Shiba Inu",
  "Tibetan Spaniel",
  "Tibetan Terrier",
  "Xoloitzcuintli",

  /* Sporting */
  "American Water Spaniel",
  "Barbet",
  "Boykin Spaniel",
  "Brittany",
  "Chesapeake Bay Retriever",
  "Clumber Spaniel",
  "Cocker Spaniel (ASCOB)",
  "Cocker Spaniel (Black)",
  "Cocker Spaniel (Parti)",
  "Curly-Coated Retriever",
  "English Cocker Spaniel",
  "English Setter",
  "English Springer Spaniel",
  "Field Spaniel",
  "Flat-Coated Retriever",
  "German Shorthaired Pointer",
  "German Wirehaired Pointer",
  "Golden Retriever",
  "Gordon Setter",
  "Irish Red and White Setter",
  "Irish Setter",
  "Irish Water Spaniel",
  "Labrador Retriever",
  "Lagotto Romagnolo",
  "Nederlandse Kooikerhondje",
  "Nova Scotia Duck Tolling Retriever",
  "Pointer",
  "Spinone Italiano",
  "Sussex Spaniel",
  "Vizsla",
  "Weimaraner",
  "Welsh Springer Spaniel",
  "Wirehaired Pointing Griffon",
  "Wirehaired Vizsla",

  /* Terrier */
  "Airedale Terrier",
  "American Hairless Terrier",
  "American Staffordshire Terrier",
  "Australian Terrier",
  "Bedlington Terrier",
  "Border Terrier",
  "Bull Terrier (Colored)",
  "Bull Terrier (White)",
  "Cairn Terrier",
  "Cesky Terrier",
  "Dandie Dinmont Terrier",
  "Glen of Imaal Terrier",
  "Irish Terrier",
  "Kerry Blue Terrier",
  "Lakeland Terrier",
  "Manchester Terrier (Standard)",
  "Miniature Bull Terrier",
  "Miniature Schnauzer",
  "Norfolk Terrier",
  "Norwich Terrier",
  "Parson Russell Terrier",
  "Rat Terrier",
  "Russell Terrier",
  "Scottish Terrier",
  "Sealyham Terrier",
  "Skye Terrier",
  "Smooth Fox Terrier",
  "Soft Coated Wheaten Terrier",
  "Staffordshire Bull Terrier",
  "Welsh Terrier",
  "West Highland White Terrier",
  "Wire Fox Terrier",

  /* Working */
  "Akita",
  "Alaskan Malamute",
  "Anatolian Shepherd Dog",
  "Bernese Mountain Dog",
  "Black Russian Terrier",
  "Boerboel",
  "Boxer",
  "Bullmastiff",
  "Cane Corso",
  "Chinook",
  "Doberman Pinscher",
  "Dogo Argentino",
  "Dogue de Bordeaux",
  "German Pinscher",
  "Giant Schnauzer",
  "Great Dane",
  "Great Pyrenees",
  "Greater Swiss Mountain Dog",
  "Komondor",
  "Kuvasz",
  "Leonberger",
  "Mastiff",
  "Neapolitan Mastiff",
  "Newfoundland",
  "Portuguese Water Dog",
  "Rottweiler",
  "Saint Bernard",
  "Samoyed",
  "Siberian Husky",
  "Standard Schnauzer",
  "Tibetan Mastiff",

   /* Miscellaneous */
  "Bracco Italiano",
  "Dutch Shepherd",
  "Lancashire Heeler",
  "Mudi",
  "Norrbottenspets",
  "Peruvian Inca Orchid",
  "Portuguese Podengo",
  "Russian Toy",
  "Small Munsterlander",
  "Teddy Roosevelt Terrier"
];

number_of_days = 4;

breed_count_on_day = [|
  /* Herding */
      6,   10,   10,   10,
  |  23,   23,   24,   23,
  |   1,    1,    1,    1,
  |   0,    0,    1,    1,
  |   0,    0,    0,    0,
  |   4,    4,    4,    4,
  |   3,    2,    3,    3,
  |   1,    1,    1,    1,
  |   0,    0,    0,    0,
  |   2,    2,    5,    5,
  |   4,    4,    4,    4,
  |   0,    0,    0,    0,
  |   0,    0,    0,    0,
  |   0,    0,    0,    0,
  |   9,    8,   15,   15,
  |   2,    8,    3,    3,
  |   0,    0,    0,    0,
  |   0,    0,    0,    0,
  |   0,    0,    0,    0,
  |   3,    6,    9,    9,
  |   0,    0,    0,    0,
  |   5,    8,   10,    9,
  |   0,    0,    0,    0,
  |   0,    0,    0,    0,
  |  12,   14,   14,   15,
  |   0,    0,    0,    0,
  |   2,    2,    2,    2,
  |   6,    7,    7,    5,
  |   0,    0,    1,    1,
  |  29,   35,   38,   37,
  |   0,    0,    0,    0,
  |   0,    0,    0,    0,

  /* Hound */
  |   4,    8,    7,    8,
  |   0,    0,    0,    0,
  |   1,    1,    1,    1,
  |   0,    0,    0,    0,
  |   0,    0,    1,    1,
  |   0,    0,    0,    1,
  |   0,    0,    1,    1,
  |   0,    0,    3,    3,
  |   0,    0,    0,    0,
  |   2,    2,    2,    2,
  |   0,    0,    0,    0,
  |   2,    2,    4,    3,
  |   0,    0,    0,    0,
  |   9,    9,    9,    9,
  |   4,    2,    2,    2,
  |   0,    3,    3,    4,
  |   0,    0,    0,    0,
  |   0,    0,    0,    0,
  |   1,    1,    2,    2,
  |   0,    0,    0,    0,
  |   1,    1,    2,    1,
  |   0,    0,    5,    4,
  |   0,    0,    0,    0,
  |   0,    0,    0,    0,
  |   2,    2,    2,    2,
  |   0,    0,    0,    0,
  |   0,    0,    0,    0,
  |   3,    4,    4,    4,
  |   0,    0,    0,    0,
  |  11,   12,   16,   16,
  |   1,    1,    1,    1,
  |   0,    0,    0,    0,
  |   0,    0,    0,    0,
  |   0,    0,    0,    0,
  |   8,    8,   11,   11,

  /* Toy */
  |   1,    1,    1,    1,
  |   1,    5,    9,    9,
  |   1,    6,    3,    6,
  |  14,   15,   16,   16,
  |   8,    6,   11,   11,
  |  16,   11,   15,   15,
  |   4,    5,    6,    6,
  |   6,    6,    6,    6,
  |   2,    2,    0,    0,
  |  12,   11,   10,   10,
  |   0,    0,    0,    0,
  |   2,    2,    6,    6,
  |   4,    4,    4,    4,
  |   3,    3,    3,    3,
  |   7,    7,    8,    5,
  |  15,   12,   27,   25,
  |   2,    4,    4,    4,
  |  11,   13,   13,   11,
  |   0,    4,    4,    4,
  |   3,    3,    5,    5,
  |   2,    7,    6,    2,
  |   0,    0,    0,    0,
  |  12,   12,   13,   13,
  |   2,    2,    2,    2,

  /* Non-Sporting */
  |   0,    0,    0,    0,
  |   8,    8,    5	,    5,
  |   8,    8,    8,    6,
  |   3,    6,    9,    9,
  |   3,    3,    5,    5,
  |   0,    0,    0,    0,
  |   2,    2,    2,    2,
  |   4,    5,    7,    6,
  |   0,    1,    1,    1,
  |  23,   28,   28,   29,
  |   4,    8,    8,    8,
  |   4,    5,    5,    4,
  |   0,    2,    5,    5,
  |   0,    0,    0,    0,
  |   2,    2,    2,    2,
  |   7,    8,    9,    9,
  |   0,    0,    0,    0,
  |   8,    8,    8,    8,
  |   2,    2,    5,    4,
  |   1,    1,    1,    1,
  |   0,    0,    0,    0,

  /* Sporting */
  |   0,    0,    0,    0,
  |   0,    0,    0,    0,
  |   1,    1,    1,    1,
  |   1,    1,    5,    5,
  |   0,    0,    0,    0,
  |   1,    1,    1,    1,
  |   3,    2,    3,    2,
  |   2,    2,    2,    2,
  |   2,    2,    6,    6,
  |   0,    0,    0,    0,
  |   1,    1,    2,    2,
  |   0,    0,    0,    0,
  |   2,    3,    3,    2,
  |   0,    0,    1,    1,
  |   0,    0,    0,    0,
  |   6,    6,    7,    6,
  |   1,    1,    1,    1,
  |  17,   22,   17,   16,
  |   1,    1,    1,    1,
  |   0,    0,    0,    0,
  |   0,    0,    0,    0,
  |   1,    1,    1,    2,
  |  12,   14,   14,   15,
  |   1,    1,    1,    1,
  |   0,    0,    0,    0,
  |   1,    2,    3,    3,
  |   2,    2,    2,    2,
  |   2,    2,    4,    4,
  |   0,    0,    0,    0,
  |   7,    8,    9,    9,
  |   4,    4,    7,    7,
  |   0,    0,    0,    0,
  |   3,    3,    3,    3,
  |   0,    0,    0,    0,

  /* Terrier */
  |   0,    0,    0,    0,
  |   2,    2,    4,    4,
  |   1,    1,    1,    1,
  |   0,    0,    0,    1,
  |   0,    0,    0,    0,
  |   1,    1,    2,    2,
  |   1,    1,    1,    1,
  |   0,    0,    1,    1,
  |   0,    0,    0,    0,
  |   0,    0,    0,    0,
  |   1,    1,    1,    1,
  |   0,    0,    0,    0,
  |   0,    0,    0,    0,
  |   5,    5,    6,    6,
  |   0,    0,    0,    0,
  |   0,    0,    0,    0,
  |   0,    0,    0,    0,
  |   6,    6,    6,    6,
  |   2,    2,    2,    2,
  |   3,    3,    3,    3,
  |   0,    0,    0,    0,
  |   0,    0,    1,    1,
  |   0,    0,    0,    0,
  |   9,    9,   10,   10,
  |   5,    5,    5,    5,
  |   1,    1,    1,    1,
  |   3,    4,    4,    3,
  |   1,    1,    2,    2,
  |   3,    3,    3,    3,
  |   0,    0,    0,    0,
  |   2,    2,    3,    3,
  |   0,    0,    0,    0,

  /* Working */
  |   5,    5,    6,    4,
  |   1,    1,    3,    3,
  |   0,    0,    0,    0,
  |   9,    9,    8,    8,
  |   2,    2,    2,    2,
  |   0,    0,    0,    0,
  |  21,   24,   29,   20,
  |   0,    0,    3,    3,
  |   7,    6,    6,    5,
  |   0,    0,    0,    0,
  |  43,   49,   50,   42,
  |   0,    0,    0,    0,
  |   0,    0,    0,    0,
  |  10,   11,   12,   12,
  |   2,    2,    2,    2,
  |  25,   33,   33,   31,
  |   0,    0,    0,    0,
  |   3,    3,    4,    4,
  |   0,    0,    0,    0,
  |   0,    0,    0,    0,
  |   0,    4,    4,    4,
  |   3,    4,    5,    5,
  |   0,    0,    0,    0,
  |   6,    6,    6,    6,
  |   6,    8,    8,    5,
  |   6,    6,    7,    7,
  |   1,    1,    1,    1,
  |  17,   19,   22,   17,
  |   6,    7,   12,   13,
  |   5,    5,    7,    7,
  |   0,    0,    1,    1,

   /* Miscellaneous */
  |   0,    0,    0,    0,
  |   0,    0,    0,    0,
  |   0,    0,    0,    0,
  |   0,    0,    0,    0,
  |   0,    0,    0,    0,
  |   0,    0,    0,    0,
  |   0,    0,    0,    0,
  |   0,    0,    0,    0,
  |   0,    0,    0,    0,
  |   0,    0,    0,    0,
  |];

number_of_judges = 17;

judge_name = [
  "Ms Vicki E Allenbrand",
  "Dr Albert P Bianchi",
  "Ms Gena Box-Young",
  "Mr John Constantine-Amodei",
  "Mr Edmund Dziuk",
  "Jennie Hynes",
  "Ms Terri Lyddon",
  "Mrs Karen S McFarlane",
  "Mr Ken J Murray",
  "Mrs Pamela B Peat",
  "Mr Jeffrey G Pepper",
  "Mrs Angela Pickett",
  "Mrs Linda M Riedel",
  "Ms Yvonne Samuelson",
  "Mrs Nancy D Simmons",
  "Mr Joe C Walton",
  "Mrs Sherry C Webster",
];

/* We don't necessarily have hard info on what days a judge
   is available. As a proxy, we will say that if a judge has
   been assigned at least one breed on a given day, then they
   are available that day; and if not assigned a breed on that
   day, they aren't considered available for purposes of
   swapping to resolve overdraws. */

original_judge_assignments_by_breed_and_day = [|
  /* Herding */
     17,  15,  13,   2,
  |  17,   7,  13,  15,
  |  17,  15,  13,   2,
  |  17,   1,  13,   2,
  |  17,  15,  13,   2,
  |  17,   1,  13,   2,
  |  17,  15,  13,   2,
  |  17,  15,  13,   2,
  |  17,  15,  13,   2,
  |  17,  15,  13,   2,
  |  17,  15,  13,   2,
  |  17,  15,  13,   2,
  |  17,  15,  13,   2,
  |  17,  15,  13,   2,
  |  17,  15,  13,   2,
  |  17,  14,  13,  15,
  |  17,  14,  13,  15,
  |  17,  15,  13,   2,
  |  17,  15,  13,   2,
  |  17,  15,  13,   2,
  |  17,  15,  13,   2,
  |  17,  15,  13,   2,
  |  17,   1,  13,   2,
  |  17,  15,  13,   2,
  |  17,   1,  13,   2,
  |  17,   1,  13,   2,
  |  17,  15,  13,   2,
  |  17,  15,  13,   2,
  |  17,   1,  13,   2,
  |  17,  14,  13,   2,
  |  17,  15,  13,   2,
  |  17,   1,  13,   2,

  /* Hound */
  |  11,  13,  16,   2,
  |  11,  13,  16,   5,
  |  11,  13,  16,   5,
  |  11,  13,  12,   5,
  |  11,  13,  12,   5,
  |  11,  13,  12,   5,
  |  11,   6,  16,  13,
  |  11,   6,  16,  13,
  |  11,  13,  16,   5,
  |  11,  13,  12,   5,
  |  11,  13,  12,   5,
  |  11,  13,  16,   5,
  |  11,  13,  12,   5,
  |  11,  13,  12,  16,
  |  11,  13,  12,  16,
  |  11,  13,  12,   5,
  |  11,  13,  16,   5,
  |  11,  13,  16,   5,
  |  11,  13,  16,   5,
  |  11,  13,  16,   5,
  |  11,  13,  16,   5,
  |  11,  13,  16,   5,
  |  11,  13,  16,   5,
  |  11,  13,  12,   5,
  |  11,  13,  16,   5,
  |  11,  13,  16,   5,
  |  11,  13,  16,   5,
  |  11,  13,  16,   5,
  |  11,  13,  16,   5,
  |  11,   9,  16,  13,
  |  11,   2,  16,   5,
  |  11,  13,  16,   5,
  |  11,  13,  16,   5,
  |  11,  13,  12,   5,
  |  11,   2,  16,   5,

  /* Toy */
  |   9,   4,  15,  10,
  |   9,   2,  15,  10,
  |   9,   2,  15,  10,
  |  11,   4,  15,	 10,
  |   9,   4,  15,  10,
  |   9,   4,  15,  10,
  |   9,   4,  15,  10,
  |   9,   2,  15,  10,
  |   9,   2,  15,  10,
  |   9,  16,  10,   4,
  |   9,  16,  10,   4,
  |   9,   2,  10,   4,
  |   9,  16,  10,   4,
  |   9,  16,  10,   4,
  |   9,  16,  10,   5,
  |   9,  16,  10,   4,
  |  16,   2,  10,   4,
  |  16,  15,  10,   4,
  |   9,  16,   2,   4,
  |  16,  15,  10,   4,
  |  16,   2,   4,   9,
  |  16,  15,  10,   4,
  |  16,   2,  10,   4,
  |  16,   4,  10,   9,

  /* Non-Sporting */
  |  4,    7,  12,  16,
  |  4,    7,  12,  16,
  |  4,    7,  12,  16,
  | 16,    7,  12,   4,
  | 15,    7,  12,  16,
  |  4,    7,  12,  16,
  |  4,    7,  12,  16,
  |  4,    7,  12,  16,
  |  4,    7,  12,  16,
  |  4,    7,  15,  10,
  | 15,    7,  12,  10,
  |  4,    7,  12,  15,
  |  4,    7,  12,  10,
  |  4,    7,  12,  10,
  |  9,    7,  12,  10,
  |  9,    7,  12,  10,
  |  4,    7,  12,  10,
  |  4,    7,  12,  15,
  |  4,    7,  12,  15,
  |  4,    7,  12,  10,
  |  4,    7,  12,  10,

  /* Sporting */
  | 16,   11,   9,   5,
  | 15,   11,   9,  16,
  | 15,   11,   9,   5,
  | 17,   11,   9,  15,
  | 15,   11,   9,  16,
  | 16,   11,   9,   5,
  | 15,   11,   9,  16,
  | 15,   11,   9,  16,
  | 15,   11,   9,  16,
  | 16,   11,   9,  15,
  | 17,   11,   9,  16,
  | 15,   11,   9,  16,
  | 15,   11,   9,   5,
  | 15,   11,   9,   5,
  | 15,   11,   9,  16,
  | 17,   11,   9,  16,
  | 15,   16,   9,   5,
  | 15,   11,   9,  16,
  | 15,   11,   9,  16,
  | 16,   11,   9,  15,
  | 16,   11,   9,  15,
  | 15,   11,   9,   5,
  | 15,   11,   9,  16,
  | 15,   11,   9,  16,
  | 15,   11,   9,  16,
  | 15,   11,   9,  16,
  | 16,   11,   9,  15,
  | 16,   11,   9,   5,
  | 15,   11,   9,   5,
  | 17,   11,   9,   5,
  | 16,   11,  13,   5,
  | 16,   11,   9,  15,
  | 16,   11,   9,   5,
  | 16,   11,   9,   5,

  /* Terrier */
  | 16,   10,   4,   9,
  | 16,   10,   4,   9,
  | 16,   10,   4,   9,
  |  8,   10,   4,   9,
  |  8,   10,   4,   9,
  | 16,   10,   4,   9,
  | 16,   10,   4,   9,
  | 16,   10,   4,   9,
  | 16,   10,   4,   9,
  | 16,   10,   4,   9,
  |  8,   10,   4,   9,
  | 16,   10,   4,   9,
  |  8,   10,   4,   9,
  | 16,   10,   4,   9,
  | 16,   10,   4,   9,
  | 16,   10,   4,   9,
  | 16,   10,   4,   9,
  | 16,   10,   4,   9,
  | 16,   10,   4,   9,
  | 16,   10,   4,   9,
  | 16,   10,   4,   9,
  | 16,   10,   4,   9,
  | 16,   10,   4,   9,
  | 16,   10,   4,   9,
  |  8,   10,   4,   9,
  | 16,   10,   4,   9,
  | 16,   10,   4,   9,
  | 16,   10,   4,   9,
  | 16,   10,   4,   9,
  |  8,   10,   4,   9,
  |  8,   10,   4,   9,
  | 16,   10,   4,   9,

  /* Working */
  |  8,    9,   4,  13,
  |  1,    9,   2,  13,
  |  4,    9,   2,  13,
  |  4,    9,   1,  15,
  |  4,    9,   1,  13,
  |  4,    9,   1,  13,
  |  4,    9,   2,  15,
  |  4,    9,   2,  13,
  |  4,    9,   2,  15,
  |  4,    9,   2,  13,
  |  1,   13,  16,   9,
  |  4,    9,   1,  13,
  |  4,    9,   2,  13,
  |  4,    9,   1,  13,
  |  4,    9,   2,  13,
  | 15,   13,   4,   2,
  |  4,    9,   2,  13,
  |  4,    9,   2,  13,
  |  4,    9,   2,  13,
  |  4,    9,   2,  13,
  |  4,    9,   2,  13,
  |  1,    4,  15,  13,
  |  4,    9,   2,  13,
  |  1,    9,  15,  13,
  |  4,    9,  15,  13,
  |  8,    9,  15,  13,
  |  4,    9,   1,  13,
  | 17,    4,   2,  13,
  |  1,   15,   4,  13,
  |  4,   15,   1,  13,
  |  4,    9,   2,  13,

   /* Miscellaneous */
  |  1,   10,  12,  15,
  |  1,   10,  12,  15,
  |  1,   10,  12,  15,
  |  1,   10,  12,  15,
  |  1,   10,  12,  15,
  |  1,   10,  12,  15,
  |  1,   10,  12,  15,
  |  1,   10,  12,  15,
  |  1,   10,  12,  15,
  |  1,   10,  12,  15,
  |];

eligible_breeds_for_judge = [
  /* Ms Vicki E Allenbrand */
  { 1, 2, 4, 6, 9, 10, 11, 13,
   15, 16, 17, 18, 20, 21, 23,
   25, 26, 28, 29, 30, 31, 32 /* plus misc */ },
  },
  /* Dr Albert P Bianchi */
Brittanys 	Prov/Permit
Retrievers (Golden) 	Approved
Retrievers (Labrador) 	Approved
Afghan Hounds 	Approved
Basenjis 	Prov/Permit
Grand Basset Griffon Vendeens 	Prov/Permit
Greyhounds 	Prov/Permit
Norwegian Elkhounds 	Approved
Otterhounds 	Prov/Permit
Petits Bassets Griffons Vendeens 	Approved
Portuguese Podengo Pequenos 	Approved
Rhodesian Ridgebacks 	Approved
Salukis 	Approved
Whippets 	Approved
Working Group 	Approved
Manchester Terriers (Standard) 	Approved
Miniature Schnauzers 	Approved
Manchester Terriers 	Approved
Toy Group 	Prov/Permit
Affenpinschers 	Prov/Permit
Biewer Terriers 	Prov/Permit
Brussels Griffons 	Prov/Permit
Cavalier King Charles Spaniels 	Approved
Chihuahuas 	Approved
Chinese Crested 	Approved
English Toy Spaniels 	Prov/Permit
Havanese 	Approved
Italian Greyhounds 	Approved
Japanese Chin 	Prov/Permit
Maltese 	Approved
Manchester Terriers (Toy) 	Approved
Miniature Pinschers 	Approved
Papillons 	Approved
Pekingese 	Prov/Permit
Pomeranians 	Approved
Poodles (Toy) 	Approved
Pugs 	Approved
Russian Toys 	Prov/Permit
Shih Tzu 	Prov/Permit
Silky Terriers 	Prov/Permit
Toy Fox Terriers 	Prov/Permit
Yorkshire Terriers 	Prov/Permit
];

  "Ms Gena Box-Young",
  "Mr John Constantine-Amodei",
  "Mr Edmund Dziuk",
  "Jennie Hynes",
  "Ms Terri Lyddon",
  "Mrs Karen S McFarlane",
  "Mr Ken J Murray",
  "Mrs Pamela B Peat",
  "Mr Jeffrey G Pepper",
  "Mrs Angela Pickett",
  "Mrs Linda M Riedel",
  "Ms Yvonne Samuelson",
  "Mrs Nancy D Simmons",
  "Mr Joe C Walton",
  "Mrs Sherry C Webster",

max_dogs_for_judge_on_day = [|
    175, 175, 175, 175,
  | 175, 175, 175, 175,
  | 175, 175, 175, 175,
  | 175, 175, 175, 175,
  | 175, 175, 175, 175,
  | 175, 175, 175, 175,
  | 175, 175, 175, 175,
  | 175, 175, 175, 175,
  | 175, 175, 175, 175,
  | 175, 175, 175, 175,
  | 175, 175, 175, 175,
  | 175, 175, 175, 175,
  | 175, 175, 175, 175,
  | 175, 175, 175, 175,
  | 175, 175, 175, 175,
  | 175, 175, 175, 175,
  | 175, 175, 175, 175,
  |];
